(set-logic QF_S)
(set-option :strings-exp true)
(set-option :produce-models true)
(declare-fun sigmaStar_0 () String)
(declare-fun sigmaStar_1 () String)
(declare-fun literal_11 () String)
(assert (= literal_11 "\x3c\x73\x74\x72\x6f\x6e\x67\x3e\x63\x6f\x75\x6c\x64\x6e\x6f\x74\x66\x69\x6e\x64\x66\x65\x65\x64\x3a\x20\x72\x73\x73\x69\x64\x3c\x2f\x73\x74\x72\x6f\x6e\x67\x3e"))
(assert (str.in.re literal_11 (re.++ (re.* re.allchar) (re.++ (str.to.re "\x5c\x3c\x53\x43\x52\x49\x50\x54") (re.* re.allchar)))))
(check-sat)
(get-model)
